This is Ipopt version 3.10.1, running with linear solver mumps.

Number of nonzeros in equality constraint Jacobian...:      177
Number of nonzeros in inequality constraint Jacobian.:        0
Number of nonzeros in Lagrangian Hessian.............:     3324

Total number of variables............................:       90
                     variables with only lower bounds:        0
                variables with lower and upper bounds:       90
                     variables with only upper bounds:        0
Total number of equality constraints.................:       59
Total number of inequality constraints...............:        0
        inequality constraints with only lower bounds:        0
   inequality constraints with lower and upper bounds:        0
        inequality constraints with only upper bounds:        0

iter    objective    inf_pr   inf_du lg(mu)  ||d||  lg(rg) alpha_du alpha_pr  ls
   0 -1.0416577e-03 4.56e-03 5.71e-04  -1.0 0.00e+00    -  0.00e+00 0.00e+00   0
   1 -9.4286986e-04 4.44e-16 4.60e-04  -1.7 1.86e-02    -  9.95e-01 1.00e+00h  1
   2 -8.0024378e-04 1.41e-10 1.49e-03  -2.5 3.64e-02    -  9.85e-01 1.00e+00f  1
   3 -7.8157119e-04 7.63e-12 1.90e-05  -3.8 3.37e-02    -  9.98e-01 1.00e+00f  1
   4 -1.1210787e-03 1.11e-15 4.62e-04  -5.7 3.76e-02  -2.0 9.30e-01 1.00e+00f  1
   5 -1.4369949e-03 2.06e-13 7.34e-04  -5.7 2.45e-02  -1.6 1.00e+00 1.00e+00f  1
   6 -2.2097892e-03 1.92e-13 1.97e-03  -5.7 6.17e-01  -2.1 8.48e-01 6.50e-02f  1
   7 -3.3237152e-03 7.49e-14 1.81e-03  -5.7 6.99e-02  -1.6 1.00e+00 6.10e-01f  1
   8 -3.3207595e-03 7.48e-14 2.19e-03  -5.7 2.79e-01  -2.1 1.71e-01 4.88e-04f 12
   9 -3.8239486e-03 7.09e-14 1.67e-02  -5.7 2.89e-01  -1.7 1.00e+00 5.30e-02f  1
iter    objective    inf_pr   inf_du lg(mu)  ||d||  lg(rg) alpha_du alpha_pr  ls
  10 -4.0870005e-03 5.64e-14 3.62e-03  -5.7 4.34e-02  -1.3 1.00e+00 2.06e-01f  1
  11 -6.7320946e-03 4.98e-14 2.18e-02  -5.7 6.63e-01  -1.7 8.14e-01 1.16e-01f  1
  12 -7.7488899e-03 6.10e-13 9.98e-03  -5.7 1.43e-01  -1.3 1.00e+00 1.58e-01f  1
  13 -7.7448540e-03 6.10e-13 4.81e-03  -5.7 3.30e-01  -1.8 1.46e-01 2.44e-04f 13
  14 -9.8520455e-03 5.15e-13 1.71e-02  -5.7 2.53e-01  -1.4 1.00e+00 1.55e-01f  1
  15 -1.1279846e-02 3.36e-13 6.50e-03  -5.7 6.36e-02  -0.9 1.00e+00 3.48e-01f  1
  16 -1.1473832e-02 3.33e-13 4.43e-02  -5.7 3.86e-01  -1.4 1.00e+00 8.80e-03f  1
  17 -1.4109788e-02 2.15e-12 6.63e-03  -5.7 6.65e-02  -1.0 1.00e+00 6.74e-01f  1
  18 -1.7809201e-02 3.42e-12 3.39e-02  -5.7 6.55e-01  -1.5 5.91e-01 8.59e-02f  1
  19 -1.8282211e-02 3.46e-12 1.68e-02  -5.7 9.92e-02  -1.0 1.00e+00 6.07e-02f  1
iter    objective    inf_pr   inf_du lg(mu)  ||d||  lg(rg) alpha_du alpha_pr  ls
  20 -1.2903306e-02 2.96e-12 2.41e-02  -5.7 1.47e+00  -1.5 3.37e-02 1.45e-01h  1
  21 -1.4617433e-02 1.26e-12 1.06e-02  -5.7 7.31e-02  -1.1 1.00e+00 5.74e-01f  1
  22 -1.8519496e-02 8.36e-13 1.66e-02  -5.7 3.62e-01  -1.6 1.00e+00 3.37e-01f  1
  23 -2.1180597e-02 2.92e-12 6.85e-03  -5.7 9.64e-02  -1.1 1.00e+00 6.29e-01f  1
  24 -2.1605321e-02 2.29e-12 9.81e-03  -5.7 4.02e-02  -0.7 1.00e+00 2.28e-01f  1
  25 -2.3921292e-02 7.92e-13 7.68e-03  -5.7 8.31e-02  -1.2 1.00e+00 6.55e-01f  1
  26 -2.5638276e-02 2.00e-15 6.01e-03  -5.7 3.33e-02  -0.8 1.00e+00 9.99e-01f  1
  27 -2.6903253e-02 1.78e-15 1.54e-02  -5.7 1.83e-01  -1.2 8.02e-01 1.13e-01f  1
  28 -2.8539550e-02 4.66e-12 1.11e-02  -5.7 2.69e-02  -0.8 6.10e-01 9.83e-01f  1
  29 -3.2061078e-02 2.68e-12 1.44e-02  -5.7 1.25e-01  -1.3 1.59e-01 4.25e-01f  1
iter    objective    inf_pr   inf_du lg(mu)  ||d||  lg(rg) alpha_du alpha_pr  ls
  30 -3.3019548e-02 2.34e-12 5.94e-03  -5.7 4.54e-02  -0.9 1.00e+00 2.45e-01f  1
  31 -4.2778303e-02 4.64e-12 1.67e-02  -5.7 1.32e+00  -1.3 1.26e-02 9.49e-02f  1
  32 -4.3575591e-02 4.05e-12 1.70e-02  -5.7 8.59e-02  -0.9 3.70e-01 1.27e-01f  1
  33 -4.5038084e-02 1.26e-12 1.98e-02  -5.7 2.96e-02  -0.5 1.00e+00 6.88e-01f  1
  34 -4.8989979e-02 2.87e-12 1.18e-02  -5.7 1.06e-01  -1.0 8.18e-01 3.90e-01f  1
  35 -4.9799541e-02 2.87e-12 1.21e-02  -5.7 1.35e+01  -1.4 2.47e-03 8.96e-04f  1
  36 -5.6839643e-02 6.97e-12 7.50e-03  -5.7 6.99e-02  -1.0 1.00e+00 1.00e+00f  1
  37 -5.7317433e-02 6.90e-12 2.56e-02  -5.7 1.05e+00  -1.5 1.61e-01 9.19e-03f  1
  38 -5.9001734e-02 5.89e-12 2.04e-02  -5.7 1.20e-01  -1.1 2.54e-01 1.46e-01f  1
  39 -6.0023682e-02 5.71e-12 8.77e-02  -5.7 4.51e-01  -1.5 1.00e+00 3.15e-02f  1
iter    objective    inf_pr   inf_du lg(mu)  ||d||  lg(rg) alpha_du alpha_pr  ls
  40 -6.6628577e-02 7.36e-12 6.11e-03  -5.7 8.60e-02  -1.1 1.00e+00 8.31e-01f  1
  41 -7.0157472e-02 5.33e-13 7.18e-03  -5.7 3.60e-02  -0.7 1.00e+00 9.28e-01f  1
  42 -8.1140127e-02 3.72e-13 2.20e-02  -5.7 3.23e-01  -1.2 3.60e-02 3.01e-01f  1
  43 -9.6487099e-02 2.22e-16 3.35e-02  -5.7 1.01e-01  -0.7 5.69e-01 1.00e+00f  1
  44 -9.9075254e-02 2.22e-16 3.23e-02  -5.7 5.14e-02  -0.3 4.04e-01 2.14e-01f  1
  45 -1.3179756e-01 1.37e-11 4.63e-02  -5.7 6.56e-01  -0.8 1.17e-01 1.94e-01f  1
  46 -1.3179314e-01 1.37e-11 5.76e-02  -5.7 5.21e-01  -1.3 6.60e-02 5.12e-05f 12
  47 -9.8509081e-02 1.37e-11 5.55e-02  -5.7 4.75e+01  -0.8 6.61e-05 2.31e-03h  1
  48 -9.8563124e-02 1.37e-11 5.53e-02  -5.7 6.99e-02  -0.4 9.63e-02 3.04e-03f  1
  49 -1.0879652e-01 1.29e-11 8.06e-02  -5.7 1.48e+00  -0.9 1.61e-01 5.72e-02f  1
iter    objective    inf_pr   inf_du lg(mu)  ||d||  lg(rg) alpha_du alpha_pr  ls
  50 -1.0971979e-01 1.34e-11 8.56e-02  -5.7 8.96e-02  -0.5 2.84e-01 3.31e-02f  5
  51 -1.3561927e-01 2.71e-11 9.58e-02  -5.7 2.05e+01  -0.9 5.85e-03 3.69e-03f  1
  52 -1.8697624e-01 1.53e-11 7.32e-02  -5.7 1.97e-01  -0.5 3.76e-01 4.37e-01f  1
  53 -2.1689739e-01 6.53e-12 6.64e-02  -5.7 7.59e-02  -0.1 5.90e-01 5.72e-01f  1
  54 -2.3834321e-01 6.37e-12 2.02e-01  -5.7 1.10e+00  -0.6 1.76e-01 2.47e-02f  1
  55 -2.3833512e-01 6.37e-12 2.02e-01  -5.7 3.85e-01  -1.0 2.53e-04 2.75e-05f  6
  56 -2.3784284e-01 6.36e-12 1.15e-01  -5.7 2.16e+00  -0.6 3.17e-02 2.76e-04h  1
  57 -2.6028291e-01 5.20e-12 2.78e-01  -5.7 1.48e-01  -0.2 1.00e+00 1.82e-01f  1
  58 -3.0510953e-01 3.81e-11 8.09e-02  -5.7 4.61e-02   0.2 1.00e+00 1.00e+00f  1
  59 -3.0731392e-01 3.78e-11 4.94e-01  -5.7 2.85e-01  -0.2 1.00e+00 7.45e-03f  1
iter    objective    inf_pr   inf_du lg(mu)  ||d||  lg(rg) alpha_du alpha_pr  ls
  60 -2.3857072e-01 3.77e-11 5.98e-01  -5.7 3.07e+01  -0.7 3.81e-04 3.34e-03h  2
  61 -2.3955763e-01 3.71e-11 5.89e-01  -5.7 1.29e-01  -0.3 1.45e-02 1.30e-02f  3
  62 -2.3971202e-01 3.71e-11 1.01e+00  -5.7 1.91e+00  -0.8 3.30e-01 1.42e-04f  9
  63 -2.3857362e-01 3.69e-11 6.50e-01  -5.7 4.81e-01  -1.3 2.58e-01 4.91e-03h  6
  64 -3.3456635e-01 3.63e-11 5.99e-01  -5.7 8.43e+00  -0.8 1.26e-02 1.61e-02f  1
  65 -3.3456079e-01 3.63e-11 6.21e-01  -5.7 6.54e-01  -0.4 3.74e-01 1.38e-05f 15
  66 -3.8536301e-01 5.48e-11 6.50e-01  -5.7 3.53e-01  -0.9 1.00e+00 2.48e-01f  1
  67 -3.8536237e-01 5.48e-11 4.69e-01  -5.7 3.26e-01    -  1.64e-01 3.03e-06f 19
  68 -4.2755304e-01 7.71e-12 3.04e-02  -5.7 6.77e-02  -0.5 1.00e+00 8.59e-01f  1
  69 -4.2749067e-01 7.70e-12 3.40e-01  -5.7 5.05e-02    -  7.09e-01 1.67e-03f  9
iter    objective    inf_pr   inf_du lg(mu)  ||d||  lg(rg) alpha_du alpha_pr  ls
  70 -4.2753036e-01 7.60e-12 3.40e-01  -5.7 1.44e-02    -  1.00e+00 1.23e-02f  1
  71 -4.2835942e-01 4.98e-11 4.98e-02  -5.7 1.05e-02    -  1.00e+00 7.91e-01f  1
  72 -4.2844567e-01 4.08e-11 4.10e-02  -5.7 2.58e-03    -  6.99e-01 8.60e-01f  1
  73 -4.2845337e-01 2.56e-11 2.76e-02  -5.7 3.73e-04    -  1.00e+00 8.20e-01f  1
  74 -4.2845491e-01 2.22e-16 2.92e-08  -5.7 6.85e-05    -  1.00e+00 1.00e+00f  1
  75 -4.2858393e-01 2.00e-14 4.92e-08  -8.6 7.55e-05    -  1.00e+00 1.00e+00f  1
  76 -4.2858389e-01 3.33e-16 3.65e-15  -8.6 1.37e-08    -  1.00e+00 1.00e+00h  1

Number of Iterations....: 76

                                   (scaled)                 (unscaled)
Objective...............:  -4.2858389339025849e-01   -4.2858389339025849e-01
Dual infeasibility......:   3.6493339160432084e-15    3.6493339160432084e-15
Constraint violation....:   3.3306690738754696e-16    3.3306690738754696e-16
Complementarity.........:   2.7620041845930136e-09    2.7620041845930136e-09
Overall NLP error.......:   2.7620041845930136e-09    2.7620041845930136e-09


Number of objective function evaluations             = 184
Number of objective gradient evaluations             = 77
Number of equality constraint evaluations            = 184
Number of inequality constraint evaluations          = 0
Number of equality constraint Jacobian evaluations   = 1
Number of inequality constraint Jacobian evaluations = 0
Number of Lagrangian Hessian evaluations             = 76
Total CPU secs in IPOPT (w/o function evaluations)   =      0.220
Total CPU secs in NLP function evaluations           =      2.580

EXIT: Optimal Solution Found.
